
Gurobi 10.0.1 (win64) logging started Sat Sep  9 01:38:41 2023

Set parameter LogFile to value "results-heuristic-start//log/BA_11_makespan.log"
Gurobi Optimizer version 10.0.1 build v10.0.1rc0 (win64)

CPU model: AMD Ryzen 7 3700X 8-Core Processor, instruction set [SSE2|AVX|AVX2]
Thread count: 8 physical cores, 16 logical processors, using up to 16 threads

Optimize a model with 266 rows, 286 columns and 1001 nonzeros
Model fingerprint: 0x8cfb5c60
Variable types: 30 continuous, 256 integer (255 binary)
Coefficient statistics:
  Matrix range     [1e+00, 1e+06]
  Objective range  [1e+00, 1e+00]
  Bounds range     [1e+00, 1e+00]
  RHS range        [1e+00, 3e+06]

Warning: Completing partial solution with 241 unfixed non-continuous variables out of 256
User MIP start produced solution with objective 1002 (0.00s)
Loaded user MIP start with objective 1002

Presolve removed 55 rows and 170 columns
Presolve time: 0.00s
Presolved: 211 rows, 116 columns, 912 nonzeros
Variable types: 30 continuous, 86 integer (85 binary)
Found heuristic solution: objective 1001.0000000

Root relaxation: objective 3.800000e+01, 49 iterations, 0.00 seconds (0.00 work units)

    Nodes    |    Current Node    |     Objective Bounds      |     Work
 Expl Unexpl |  Obj  Depth IntInf | Incumbent    BestBd   Gap | It/Node Time

     0     0   38.00000    0    9 1001.00000   38.00000  96.2%     -    0s
H    0     0                     116.0000000   38.00000  67.2%     -    0s
H    0     0                     110.0000000   38.00000  65.5%     -    0s
     0     0   38.00000    0   18  110.00000   38.00000  65.5%     -    0s
H    0     0                     109.0000000   38.00000  65.1%     -    0s
H    0     0                     101.0000000   38.00000  62.4%     -    0s
H    0     0                      91.0000000   39.63379  56.4%     -    0s
     0     0   39.63379    0   23   91.00000   39.63379  56.4%     -    0s
     0     0   41.54106    0   17   91.00000   41.54106  54.4%     -    0s
H    0     0                      87.0000000   42.00000  51.7%     -    0s
     0     0   42.00000    0    9   87.00000   42.00000  51.7%     -    0s
     0     0   42.00000    0   21   87.00000   42.00000  51.7%     -    0s
     0     0   42.20044    0   17   87.00000   42.20044  51.5%     -    0s
     0     0   42.44150    0   25   87.00000   42.44150  51.2%     -    0s
     0     0   42.49722    0   26   87.00000   42.49722  51.2%     -    0s
     0     0   42.55512    0   26   87.00000   42.55512  51.1%     -    0s
     0     0   42.55695    0   26   87.00000   42.55695  51.1%     -    0s
     0     0   42.64907    0   26   87.00000   42.64907  51.0%     -    0s
     0     0   43.08938    0   21   87.00000   43.08938  50.5%     -    0s
     0     0   43.21663    0   16   87.00000   43.21663  50.3%     -    0s
     0     0   43.26455    0   21   87.00000   43.26455  50.3%     -    0s
     0     0   43.26644    0   18   87.00000   43.26644  50.3%     -    0s
     0     0   43.26644    0   19   87.00000   43.26644  50.3%     -    0s
     0     0   44.09155    0   16   87.00000   44.09155  49.3%     -    0s
     0     0   44.22670    0   20   87.00000   44.22670  49.2%     -    0s
     0     0   44.28072    0   22   87.00000   44.28072  49.1%     -    0s
     0     0   44.28096    0   24   87.00000   44.28096  49.1%     -    0s
     0     0   44.28861    0   24   87.00000   44.28861  49.1%     -    0s
     0     0   44.28933    0   24   87.00000   44.28933  49.1%     -    0s
     0     0   44.29004    0   24   87.00000   44.29004  49.1%     -    0s
     0     0   44.29026    0   23   87.00000   44.29026  49.1%     -    0s
     0     0   44.29026    0   23   87.00000   44.29026  49.1%     -    0s
     0     0   44.29026    0   22   87.00000   44.29026  49.1%     -    0s
     0     1   44.29026    0   19   87.00000   44.29026  49.1%     -    0s
H  178   107                      84.0000000   46.00000  45.2%  18.3    0s
* 4369  1055              26      83.0000000   52.21429  37.1%   6.5    0s
H 4600  1033                      81.0000000   52.21429  35.5%   6.6    0s

Cutting planes:
  Learned: 2
  Gomory: 2
  MIR: 3
  Flow cover: 5

Explored 17032 nodes (85630 simplex iterations) in 0.89 seconds (0.71 work units)
Thread count was 16 (of 16 available processors)

Solution count 10: 81 81 83 ... 116

Optimal solution found (tolerance 1.00e-04)
Best objective 8.100000000000e+01, best bound 8.100000000000e+01, gap 0.0000%
Warning: constraint name "precedence between 0,2 to 0,0 if x_[j,l,h,z,i]=1" has a space
Warning: constraint name "precedence between 0,2 to 0,0 if x_[j,l,h,z,i]=1" has a space
Warning: default constraint names used to write mps file
